c description: Random 3-CNF over 5 variables and 15 clauses
c generator: CNFgen (0.9.0)
c copyright: (C) 2012-2020 Massimo Lauria <massimo.lauria@uniroma1.it>
c url: https://massimolauria.net/cnfgen
c command line: cnfgen -o 3SAT_n_5_c_15 randkcnf 3 5 15
c
p cnf 5 15
1 -4 -5 0
-2 4 5 0
2 -3 5 0
-1 -3 -4 0
-1 4 -5 0
1 -2 -4 0
1 -2 -5 0
-2 3 4 0
2 3 -4 0
2 4 5 0
2 4 -5 0
2 -3 4 0
2 -3 -5 0
-2 3 -5 0
2 3 4 0
